db/data/30514113602326423289463183200335097.z3.out
sat
-------------------
152.805611778
